p cnf 180 358
e 1 2 3 4 5 6 7 8 9 10 11 12 13 14 15 16 17 18 19 20 21 22 23 24 25 26 27 28 29 30 31 32 33 34 35 36 37 38 39 40 41 42 43 44 45 46 47 48 49 50 51 52 53 54 55 56 57 58 59 60 61 62 63 64 65 66 67 68 69 70 71 72 73 74 75 76 77 78 79 80 81 82 83 84 85 86 87 88 89 90 0
a 91 0
e 92 93 94 95 96 97 98 99 100 101 102 103 104 105 106 107 108 109 110 111 112 113 114 115 116 117 118 119 120 121 122 123 124 125 126 127 128 129 130 131 132 133 134 135 136 137 138 139 140 141 142 143 144 145 146 147 148 149 150 151 152 153 154 155 156 157 158 159 160 161 162 163 164 165 166 167 168 169 170 171 172 173 174 175 176 177 178 179 180 0
-1 -2 -92 0
-1 2 92 0
1 -2 92 0
1 2 -92 0
-92 -3 -93 0
-92 3 93 0
92 -3 93 0
92 3 -93 0
-93 -4 -94 0
-93 4 94 0
93 -4 94 0
93 4 -94 0
-94 -5 -95 0
-94 5 95 0
94 -5 95 0
94 5 -95 0
-95 -6 -96 0
-95 6 96 0
95 -6 96 0
95 6 -96 0
-96 -7 -97 0
-96 7 97 0
96 -7 97 0
96 7 -97 0
-97 -8 -98 0
-97 8 98 0
97 -8 98 0
97 8 -98 0
-98 -9 -99 0
-98 9 99 0
98 -9 99 0
98 9 -99 0
-99 -10 -100 0
-99 10 100 0
99 -10 100 0
99 10 -100 0
-100 -11 -101 0
-100 11 101 0
100 -11 101 0
100 11 -101 0
-101 -12 -102 0
-101 12 102 0
101 -12 102 0
101 12 -102 0
-102 -13 -103 0
-102 13 103 0
102 -13 103 0
102 13 -103 0
-103 -14 -104 0
-103 14 104 0
103 -14 104 0
103 14 -104 0
-104 -15 -105 0
-104 15 105 0
104 -15 105 0
104 15 -105 0
-105 -16 -106 0
-105 16 106 0
105 -16 106 0
105 16 -106 0
-106 -17 -107 0
-106 17 107 0
106 -17 107 0
106 17 -107 0
-107 -18 -108 0
-107 18 108 0
107 -18 108 0
107 18 -108 0
-108 -19 -109 0
-108 19 109 0
108 -19 109 0
108 19 -109 0
-109 -20 -110 0
-109 20 110 0
109 -20 110 0
109 20 -110 0
-110 -21 -111 0
-110 21 111 0
110 -21 111 0
110 21 -111 0
-111 -22 -112 0
-111 22 112 0
111 -22 112 0
111 22 -112 0
-112 -23 -113 0
-112 23 113 0
112 -23 113 0
112 23 -113 0
-113 -24 -114 0
-113 24 114 0
113 -24 114 0
113 24 -114 0
-114 -25 -115 0
-114 25 115 0
114 -25 115 0
114 25 -115 0
-115 -26 -116 0
-115 26 116 0
115 -26 116 0
115 26 -116 0
-116 -27 -117 0
-116 27 117 0
116 -27 117 0
116 27 -117 0
-117 -28 -118 0
-117 28 118 0
117 -28 118 0
117 28 -118 0
-118 -29 -119 0
-118 29 119 0
118 -29 119 0
118 29 -119 0
-119 -30 -120 0
-119 30 120 0
119 -30 120 0
119 30 -120 0
-120 -31 -121 0
-120 31 121 0
120 -31 121 0
120 31 -121 0
-121 -32 -122 0
-121 32 122 0
121 -32 122 0
121 32 -122 0
-122 -33 -123 0
-122 33 123 0
122 -33 123 0
122 33 -123 0
-123 -34 -124 0
-123 34 124 0
123 -34 124 0
123 34 -124 0
-124 -35 -125 0
-124 35 125 0
124 -35 125 0
124 35 -125 0
-125 -36 -126 0
-125 36 126 0
125 -36 126 0
125 36 -126 0
-126 -37 -127 0
-126 37 127 0
126 -37 127 0
126 37 -127 0
-127 -38 -128 0
-127 38 128 0
127 -38 128 0
127 38 -128 0
-128 -39 -129 0
-128 39 129 0
128 -39 129 0
128 39 -129 0
-129 -40 -130 0
-129 40 130 0
129 -40 130 0
129 40 -130 0
-130 -41 -131 0
-130 41 131 0
130 -41 131 0
130 41 -131 0
-131 -42 -132 0
-131 42 132 0
131 -42 132 0
131 42 -132 0
-132 -43 -133 0
-132 43 133 0
132 -43 133 0
132 43 -133 0
-133 -44 -134 0
-133 44 134 0
133 -44 134 0
133 44 -134 0
-134 -45 -135 0
-134 45 135 0
134 -45 135 0
134 45 -135 0
-135 -46 -136 0
-135 46 136 0
135 -46 136 0
135 46 -136 0
-136 -47 -137 0
-136 47 137 0
136 -47 137 0
136 47 -137 0
-137 -48 -138 0
-137 48 138 0
137 -48 138 0
137 48 -138 0
-138 -49 -139 0
-138 49 139 0
138 -49 139 0
138 49 -139 0
-139 -50 -140 0
-139 50 140 0
139 -50 140 0
139 50 -140 0
-140 -51 -141 0
-140 51 141 0
140 -51 141 0
140 51 -141 0
-141 -52 -142 0
-141 52 142 0
141 -52 142 0
141 52 -142 0
-142 -53 -143 0
-142 53 143 0
142 -53 143 0
142 53 -143 0
-143 -54 -144 0
-143 54 144 0
143 -54 144 0
143 54 -144 0
-144 -55 -145 0
-144 55 145 0
144 -55 145 0
144 55 -145 0
-145 -56 -146 0
-145 56 146 0
145 -56 146 0
145 56 -146 0
-146 -57 -147 0
-146 57 147 0
146 -57 147 0
146 57 -147 0
-147 -58 -148 0
-147 58 148 0
147 -58 148 0
147 58 -148 0
-148 -59 -149 0
-148 59 149 0
148 -59 149 0
148 59 -149 0
-149 -60 -150 0
-149 60 150 0
149 -60 150 0
149 60 -150 0
-150 -61 -151 0
-150 61 151 0
150 -61 151 0
150 61 -151 0
-151 -62 -152 0
-151 62 152 0
151 -62 152 0
151 62 -152 0
-152 -63 -153 0
-152 63 153 0
152 -63 153 0
152 63 -153 0
-153 -64 -154 0
-153 64 154 0
153 -64 154 0
153 64 -154 0
-154 -65 -155 0
-154 65 155 0
154 -65 155 0
154 65 -155 0
-155 -66 -156 0
-155 66 156 0
155 -66 156 0
155 66 -156 0
-156 -67 -157 0
-156 67 157 0
156 -67 157 0
156 67 -157 0
-157 -68 -158 0
-157 68 158 0
157 -68 158 0
157 68 -158 0
-158 -69 -159 0
-158 69 159 0
158 -69 159 0
158 69 -159 0
-159 -70 -160 0
-159 70 160 0
159 -70 160 0
159 70 -160 0
-160 -71 -161 0
-160 71 161 0
160 -71 161 0
160 71 -161 0
-161 -72 -162 0
-161 72 162 0
161 -72 162 0
161 72 -162 0
-162 -73 -163 0
-162 73 163 0
162 -73 163 0
162 73 -163 0
-163 -74 -164 0
-163 74 164 0
163 -74 164 0
163 74 -164 0
-164 -75 -165 0
-164 75 165 0
164 -75 165 0
164 75 -165 0
-165 -76 -166 0
-165 76 166 0
165 -76 166 0
165 76 -166 0
-166 -77 -167 0
-166 77 167 0
166 -77 167 0
166 77 -167 0
-167 -78 -168 0
-167 78 168 0
167 -78 168 0
167 78 -168 0
-168 -79 -169 0
-168 79 169 0
168 -79 169 0
168 79 -169 0
-169 -80 -170 0
-169 80 170 0
169 -80 170 0
169 80 -170 0
-170 -81 -171 0
-170 81 171 0
170 -81 171 0
170 81 -171 0
-171 -82 -172 0
-171 82 172 0
171 -82 172 0
171 82 -172 0
-172 -83 -173 0
-172 83 173 0
172 -83 173 0
172 83 -173 0
-173 -84 -174 0
-173 84 174 0
173 -84 174 0
173 84 -174 0
-174 -85 -175 0
-174 85 175 0
174 -85 175 0
174 85 -175 0
-175 -86 -176 0
-175 86 176 0
175 -86 176 0
175 86 -176 0
-176 -87 -177 0
-176 87 177 0
176 -87 177 0
176 87 -177 0
-177 -88 -178 0
-177 88 178 0
177 -88 178 0
177 88 -178 0
-178 -89 -179 0
-178 89 179 0
178 -89 179 0
178 89 -179 0
-179 -90 -180 0
-179 90 180 0
179 -90 180 0
179 90 -180 0
91 180 0
-91 -180 0
